(declare-const v0 Bool)
(declare-const v1 Bool)
(declare-const v2 Bool)
(declare-const v3 Bool)
(declare-const v4 Bool)
(assert (edge v0 (or (not v0) (not v1))))
(assert (edge (or v0 (not v1)) v2))
(assert (edge (or v3 (not v0)) (not v1)))
(assert (edge (not v4) true))
(assert (edge v1 (or (not v1) (not v4) (not v2))))
(assert (not (edge (or v3 v4) (or v1 v2))))